data/solutions/recovery/degenerate/intermediate/binding/degenerate_intermediate_instance31/107.sol
Elapsed time: 0.04
Upper bound: 16319969.0
Planning weighted value: 1.87653521655e+11
C[0]=16319969.0
C[1]=16118403.0
C[2]=16012730.0
C[3]=14719102.0
C[4]=14699574.0
C[5]=14001565.0
C[6]=13471532.0
C[7]=11456249.0
C[8]=11432716.0
C[9]=11296325.0
C[10]=11284375.0
C[11]=11247050.0
C[12]=11127517.0
C[13]=11104093.0
y[0]=6
y[1]=11
y[2]=0
y[3]=13
y[4]=3
y[5]=10
y[6]=8
y[7]=5
y[8]=2
y[9]=2
y[10]=7
y[11]=5
y[12]=1
y[13]=8
y[14]=13
y[15]=6
y[16]=1
y[17]=11
y[18]=12
y[19]=5
y[20]=7
y[21]=2
y[22]=2
y[23]=7
y[24]=13
y[25]=12
y[26]=4
y[27]=7
y[28]=10
y[29]=1
y[30]=4
y[31]=9
y[32]=6
y[33]=8
y[34]=3
y[35]=12
y[36]=7
y[37]=8
y[38]=12
y[39]=10
y[40]=11
y[41]=5
y[42]=10
y[43]=13
y[44]=3
y[45]=3
y[46]=11
y[47]=8
y[48]=13
y[49]=6
y[50]=12
y[51]=8
y[52]=1
y[53]=4
y[54]=13
y[55]=1
y[56]=4
y[57]=7
y[58]=0
y[59]=5
y[60]=9
y[61]=6
y[62]=9
y[63]=9
y[64]=3
y[65]=6
y[66]=0
y[67]=1
y[68]=0
y[69]=4
y[70]=3
y[71]=4
y[72]=0
y[73]=10
y[74]=9
y[75]=0
y[76]=4
y[77]=6
y[78]=2
y[79]=5
