data/solutions/recovery/degenerate/intermediate/binding/degenerate_intermediate_instance31/107.log

Log started (V12.6.3.0) Sun Apr 22 12:34:34 2018

New value for default parallel thread count: 1

Problem '/tmp/tmpxUrjrT.pyomo.lp' read.
Read time = 0.02 sec. (1.11 ticks)

Problem name         : /tmp/tmpxUrjrT.pyomo.lp
Objective sense      : Minimize
Variables            :    1136  [Nneg: 1,  Binary: 1120,  General Integer: 15]
Objective nonzeros   :       1
Linear constraints   :     189  [Less: 94,  Equal: 95]
  Nonzeros           :   80213
  RHS nonzeros       :      81

Variables            : Min LB: 0.000000         Max UB: 1.000000       
Objective nonzeros   : Min   : 1.000000         Max   : 1.000000       
Linear constraints   :
  Nonzeros           : Min   : 1.000000         Max   : 8036379.       
  RHS nonzeros       : Min   : 1.000000         Max   : 1.000000       
Tried aggregator 2 times.
MIP Presolve eliminated 156 rows and 1051 columns.
Aggregator did 14 substitutions.
Reduced MIP has 19 rows, 71 columns, and 154 nonzeros.
Reduced MIP has 70 binaries, 1 generals, 0 SOSs, and 0 indicators.
Presolve time = 0.00 sec. (4.83 ticks)
Found incumbent of value 3.5986592e+07 after 0.01 sec. (6.76 ticks)
Probing time = 0.00 sec. (0.09 ticks)
Tried aggregator 1 time.
Reduced MIP has 19 rows, 71 columns, and 154 nonzeros.
Reduced MIP has 70 binaries, 1 generals, 0 SOSs, and 0 indicators.
Presolve time = 0.00 sec. (0.11 ticks)
Probing time = 0.00 sec. (0.09 ticks)
Clique table members: 5.
MIP emphasis: balance optimality and feasibility.
MIP search method: dynamic search.
Parallel mode: none, using 1 thread.
Root relaxation solution time = 0.00 sec. (0.06 ticks)

        Nodes                                         Cuts/
   Node  Left     Objective  IInf  Best Integer    Best Bound    ItCnt     Gap

*     0+    0                       3.59866e+07   1.61184e+07            55.21%
      0     0   1.61184e+07     8   3.59866e+07   1.61184e+07       10   55.21%
*     0+    0                       1.92127e+07   1.61184e+07            16.11%
      0     0   1.61184e+07     7   1.92127e+07       Cuts: 5       17   16.11%
*     0+    0                       1.84760e+07   1.61184e+07            12.76%
      0     0   1.61184e+07     6   1.84760e+07       Cuts: 2       22   12.76%
*     0+    0                       1.76889e+07   1.61184e+07             8.88%
      0     0   1.61184e+07     4   1.76889e+07       Cuts: 3       32    8.88%
*     0+    0                       1.72692e+07   1.61184e+07             6.66%
*     0+    0                       1.68238e+07   1.61184e+07             4.19%
*     0+    0                       1.65699e+07   1.61184e+07             2.72%

Repeating presolve.
Tried aggregator 2 times.
MIP Presolve eliminated 10 rows and 59 columns.
MIP Presolve modified 17 coefficients.
Aggregator did 2 substitutions.
Reduced MIP has 7 rows, 10 columns, and 23 nonzeros.
Reduced MIP has 9 binaries, 1 generals, 0 SOSs, and 0 indicators.
Presolve time = 0.00 sec. (0.11 ticks)
Probing time = 0.00 sec. (0.01 ticks)
Tried aggregator 1 time.
MIP Presolve modified 2 coefficients.
Reduced MIP has 7 rows, 10 columns, and 22 nonzeros.
Reduced MIP has 9 binaries, 1 generals, 0 SOSs, and 0 indicators.
Presolve time = 0.00 sec. (0.02 ticks)
Represolve time = 0.00 sec. (0.26 ticks)
Probing time = 0.00 sec. (0.01 ticks)
Clique table members: 6.
MIP emphasis: balance optimality and feasibility.
MIP search method: dynamic search.
Parallel mode: none, using 1 thread.
Root relaxation solution time = 0.00 sec. (0.01 ticks)

        Nodes                                         Cuts/
   Node  Left     Objective  IInf  Best Integer    Best Bound    ItCnt     Gap

*     0+    0                       1.65699e+07   1.61184e+07             2.72%
      0     0   1.61184e+07     4   1.65699e+07   1.61184e+07       35    2.72%
*     0+    0                       1.65491e+07   1.61184e+07             2.60%
      0     0   1.61234e+07     7   1.65491e+07       Cuts: 3       39    2.57%
*     0+    0                       1.64130e+07   1.61234e+07             1.76%
*     0     0      integral     0   1.63200e+07   Impl Bds: 1       42    0.00%
      0     0        cutoff         1.63200e+07   1.63200e+07       42    0.00%
Elapsed time = 0.01 sec. (8.71 ticks, tree = 0.01 MB, solutions = 10)

Implied bound cuts applied:  2
Mixed integer rounding cuts applied:  1

Root node processing (before b&c):
  Real time             =    0.01 sec. (8.81 ticks)
Sequential b&c:
  Real time             =    0.00 sec. (0.00 ticks)
                          ------------
Total (root+branch&cut) =    0.01 sec. (8.81 ticks)

Solution pool: 10 solutions saved.

MIP - Integer optimal solution:  Objective =  1.6319969000e+07
Solution time =    0.01 sec.  Iterations = 42  Nodes = 0
Deterministic time = 8.82 ticks  (856.67 ticks/sec)


Incumbent solution written to file '/tmp/tmpPABHFg.cplex.sol'.
